myproject/instances/20nodes/rnd31_20.tsp
NAME : rnd31_20.tsp
TYPE : TSP
DIMENSION : 20
EDGE_WEIGHT_TYPE : EUC_2D
NODE_COORD_SECTION
1 226 597
2 610 601
3 895 164
4 224 295
5 19 166
6 973 143
7 603 269
8 215 867
9 625 173
10 279 615
11 364 857
12 25 482
13 989 544
14 394 306
15 404 875
16 785 868
17 361 218
18 747 333
19 701 596
20 867 551
