myproject/instances/20nodes/rnd31_20.opt.tour
NAME : rnd31_20.tsp.tsp.optbc.tour
TYPE : TOUR
DIMENSION : 20
TOUR_SECTION
1
4
15
13
12
7
8
10
11
17
14
6
18
3
9
19
2
16
20
5
-1